certificates/rado_a13_c124_N52.cnf
c Rad2 upper bound instance: x1 + 13*x2 - x3 = 124, interval [1,52]
p cnf 52 414
1 7 10 0
-1 -7 -10 0
1 11 20 0
-1 -11 -20 0
1 12 33 0
-1 -12 -33 0
1 13 46 0
-1 -13 -46 0
2 8 10 0
-2 -8 -10 0
2 11 21 0
-2 -11 -21 0
2 12 34 0
-2 -12 -34 0
2 13 47 0
-2 -13 -47 0
3 9 10 0
-3 -9 -10 0
3 11 22 0
-3 -11 -22 0
3 12 35 0
-3 -12 -35 0
3 13 48 0
-3 -13 -48 0
4 10 0
-4 -10 0
4 11 23 0
-4 -11 -23 0
4 12 36 0
-4 -12 -36 0
4 13 49 0
-4 -13 -49 0
5 10 11 0
-5 -10 -11 0
5 11 24 0
-5 -11 -24 0
5 12 37 0
-5 -12 -37 0
5 13 50 0
-5 -13 -50 0
6 10 12 0
-6 -10 -12 0
6 11 25 0
-6 -11 -25 0
6 12 38 0
-6 -12 -38 0
6 13 51 0
-6 -13 -51 0
7 10 13 0
-7 -10 -13 0
7 11 26 0
-7 -11 -26 0
7 12 39 0
-7 -12 -39 0
7 13 52 0
-7 -13 -52 0
1 8 9 0
-1 -8 -9 0
8 10 14 0
-8 -10 -14 0
8 11 27 0
-8 -11 -27 0
8 12 40 0
-8 -12 -40 0
2 9 0
-2 -9 0
9 10 15 0
-9 -10 -15 0
9 11 28 0
-9 -11 -28 0
9 12 41 0
-9 -12 -41 0
10 16 0
-10 -16 0
10 11 29 0
-10 -11 -29 0
10 12 42 0
-10 -12 -42 0
4 9 11 0
-4 -9 -11 0
10 11 17 0
-10 -11 -17 0
11 30 0
-11 -30 0
11 12 43 0
-11 -12 -43 0
5 9 12 0
-5 -9 -12 0
10 12 18 0
-10 -12 -18 0
11 12 31 0
-11 -12 -31 0
12 44 0
-12 -44 0
6 9 13 0
-6 -9 -13 0
10 13 19 0
-10 -13 -19 0
11 13 32 0
-11 -13 -32 0
12 13 45 0
-12 -13 -45 0
7 9 14 0
-7 -9 -14 0
10 14 20 0
-10 -14 -20 0
11 14 33 0
-11 -14 -33 0
12 14 46 0
-12 -14 -46 0
8 9 15 0
-8 -9 -15 0
10 15 21 0
-10 -15 -21 0
11 15 34 0
-11 -15 -34 0
12 15 47 0
-12 -15 -47 0
9 16 0
-9 -16 0
10 16 22 0
-10 -16 -22 0
11 16 35 0
-11 -16 -35 0
12 16 48 0
-12 -16 -48 0
9 10 17 0
-9 -10 -17 0
10 17 23 0
-10 -17 -23 0
11 17 36 0
-11 -17 -36 0
12 17 49 0
-12 -17 -49 0
9 11 18 0
-9 -11 -18 0
10 18 24 0
-10 -18 -24 0
11 18 37 0
-11 -18 -37 0
12 18 50 0
-12 -18 -50 0
9 12 19 0
-9 -12 -19 0
10 19 25 0
-10 -19 -25 0
11 19 38 0
-11 -19 -38 0
12 19 51 0
-12 -19 -51 0
9 13 20 0
-9 -13 -20 0
10 20 26 0
-10 -20 -26 0
11 20 39 0
-11 -20 -39 0
12 20 52 0
-12 -20 -52 0
1 8 21 0
-1 -8 -21 0
9 14 21 0
-9 -14 -21 0
10 21 27 0
-10 -21 -27 0
11 21 40 0
-11 -21 -40 0
2 8 22 0
-2 -8 -22 0
9 15 22 0
-9 -15 -22 0
10 22 28 0
-10 -22 -28 0
11 22 41 0
-11 -22 -41 0
3 8 23 0
-3 -8 -23 0
9 16 23 0
-9 -16 -23 0
10 23 29 0
-10 -23 -29 0
11 23 42 0
-11 -23 -42 0
4 8 24 0
-4 -8 -24 0
9 17 24 0
-9 -17 -24 0
10 24 30 0
-10 -24 -30 0
11 24 43 0
-11 -24 -43 0
5 8 25 0
-5 -8 -25 0
9 18 25 0
-9 -18 -25 0
10 25 31 0
-10 -25 -31 0
11 25 44 0
-11 -25 -44 0
6 8 26 0
-6 -8 -26 0
9 19 26 0
-9 -19 -26 0
10 26 32 0
-10 -26 -32 0
11 26 45 0
-11 -26 -45 0
7 8 27 0
-7 -8 -27 0
9 20 27 0
-9 -20 -27 0
10 27 33 0
-10 -27 -33 0
11 27 46 0
-11 -27 -46 0
8 28 0
-8 -28 0
9 21 28 0
-9 -21 -28 0
10 28 34 0
-10 -28 -34 0
11 28 47 0
-11 -28 -47 0
8 9 29 0
-8 -9 -29 0
9 22 29 0
-9 -22 -29 0
10 29 35 0
-10 -29 -35 0
11 29 48 0
-11 -29 -48 0
8 10 30 0
-8 -10 -30 0
9 23 30 0
-9 -23 -30 0
10 30 36 0
-10 -30 -36 0
11 30 49 0
-11 -30 -49 0
8 11 31 0
-8 -11 -31 0
9 24 31 0
-9 -24 -31 0
10 31 37 0
-10 -31 -37 0
11 31 50 0
-11 -31 -50 0
8 12 32 0
-8 -12 -32 0
9 25 32 0
-9 -25 -32 0
10 32 38 0
-10 -32 -38 0
11 32 51 0
-11 -32 -51 0
8 13 33 0
-8 -13 -33 0
9 26 33 0
-9 -26 -33 0
10 33 39 0
-10 -33 -39 0
11 33 52 0
-11 -33 -52 0
1 7 34 0
-1 -7 -34 0
8 14 34 0
-8 -14 -34 0
9 27 34 0
-9 -27 -34 0
10 34 40 0
-10 -34 -40 0
2 7 35 0
-2 -7 -35 0
8 15 35 0
-8 -15 -35 0
9 28 35 0
-9 -28 -35 0
10 35 41 0
-10 -35 -41 0
3 7 36 0
-3 -7 -36 0
8 16 36 0
-8 -16 -36 0
9 29 36 0
-9 -29 -36 0
10 36 42 0
-10 -36 -42 0
4 7 37 0
-4 -7 -37 0
8 17 37 0
-8 -17 -37 0
9 30 37 0
-9 -30 -37 0
10 37 43 0
-10 -37 -43 0
5 7 38 0
-5 -7 -38 0
8 18 38 0
-8 -18 -38 0
9 31 38 0
-9 -31 -38 0
10 38 44 0
-10 -38 -44 0
6 7 39 0
-6 -7 -39 0
8 19 39 0
-8 -19 -39 0
9 32 39 0
-9 -32 -39 0
10 39 45 0
-10 -39 -45 0
7 40 0
-7 -40 0
8 20 40 0
-8 -20 -40 0
9 33 40 0
-9 -33 -40 0
10 40 46 0
-10 -40 -46 0
7 8 41 0
-7 -8 -41 0
8 21 41 0
-8 -21 -41 0
9 34 41 0
-9 -34 -41 0
10 41 47 0
-10 -41 -47 0
7 9 42 0
-7 -9 -42 0
8 22 42 0
-8 -22 -42 0
9 35 42 0
-9 -35 -42 0
10 42 48 0
-10 -42 -48 0
7 10 43 0
-7 -10 -43 0
8 23 43 0
-8 -23 -43 0
9 36 43 0
-9 -36 -43 0
10 43 49 0
-10 -43 -49 0
7 11 44 0
-7 -11 -44 0
8 24 44 0
-8 -24 -44 0
9 37 44 0
-9 -37 -44 0
10 44 50 0
-10 -44 -50 0
7 12 45 0
-7 -12 -45 0
8 25 45 0
-8 -25 -45 0
9 38 45 0
-9 -38 -45 0
10 45 51 0
-10 -45 -51 0
7 13 46 0
-7 -13 -46 0
8 26 46 0
-8 -26 -46 0
9 39 46 0
-9 -39 -46 0
10 46 52 0
-10 -46 -52 0
1 6 47 0
-1 -6 -47 0
7 14 47 0
-7 -14 -47 0
8 27 47 0
-8 -27 -47 0
9 40 47 0
-9 -40 -47 0
2 6 48 0
-2 -6 -48 0
7 15 48 0
-7 -15 -48 0
8 28 48 0
-8 -28 -48 0
9 41 48 0
-9 -41 -48 0
3 6 49 0
-3 -6 -49 0
7 16 49 0
-7 -16 -49 0
8 29 49 0
-8 -29 -49 0
9 42 49 0
-9 -42 -49 0
4 6 50 0
-4 -6 -50 0
7 17 50 0
-7 -17 -50 0
8 30 50 0
-8 -30 -50 0
9 43 50 0
-9 -43 -50 0
5 6 51 0
-5 -6 -51 0
7 18 51 0
-7 -18 -51 0
8 31 51 0
-8 -31 -51 0
9 44 51 0
-9 -44 -51 0
6 52 0
-6 -52 0
7 19 52 0
-7 -19 -52 0
8 32 52 0
-8 -32 -52 0
9 45 52 0
-9 -45 -52 0
