certificates/rado_a13_c124_N52.drat
10 -48 6 0
-7 -10 -52 0
-48 -50 -52 0
-50 -52 0
d -48 -50 -52 0
50 6 0
d 50 4 6 0
-52 0
6 0
7 10 0
10 0
-4 0
-16 0
-12 0
9 0
36 0
44 0
48 0
20 0
-2 0
-13 0
-15 0
-17 0
-3 0
-41 0
-42 0
-43 0
-29 0
-30 0
-50 0
-51 0
-37 0
-38 0
-26 0
-27 0
-14 0
34 0
47 0
49 0
5 0
7 0
45 0
35 0
11 0
8 0
18 0
19 0
46 0
-40 0
-1 0
-28 0
0
